# Solution for model count
# Objective value = 9
z#1 0
z#2 0
z#3 0
z#4 0
z#5 1
z#6 0
z#7 0
z#8 1
z#9 1
z#10 1
z#11 0
z#12 0
z#13 0
z#14 1
z#15 1
z#16 0
z#17 1
z#18 0
z#19 0
z#20 0
z#21 0
z#22 1
z#23 0
z#24 1
x#24 1569
x#23 0
x#22 776
x#21 0
x#20 0
x#19 0
x#18 0
x#17 1959
x#16 0
x#15 233
x#14 885
x#13 0
x#12 0
x#11 0
x#10 2448
x#9 361
x#8 1476
x#7 0
x#6 0
x#5 293
x#4 0
x#3 0
x#2 0
x#1 0
